NAME : ClusterId_1015 
COMMENT : (Gillet and Johnson) 
TYPE : CVRP 
DIMENSION : 18 
EDGE_WEIGHT_TYPE : EUC_2D 
CAPACITY : 500 
NODE_COORD_SECTION 
1015 314 8178 
942 122 8642 
533 176 8520 
47 421 8349 
95 12 7878 
711 489 8297 
380 156 7955 
568 391 8187 
106 771 8488 
317 825 8524 
750 200 7927 
73 768 8395 
117 231 7812 
802 808 8255 
65 785 8210 
361 625 8065 
893 604 8029 
265 576 7728 
DEMAND_SECTION 
1015 1416
942 50
533 51
47 39
95 52
711 53
380 40
568 51
106 41
317 38
750 44
73 29
117 48
802 40
65 54
361 46
893 26
265 52
DEPOT_SECTION 
1015
 -1
EOF